(declare-fun temp2850_1 () (_ BitVec 64))
(declare-fun var262370 () (_ BitVec 64))
(declare-fun temp2850_2 () (_ BitVec 64))
(declare-fun temp2850_3 () (_ BitVec 64))
(declare-fun var131812 () (_ BitVec 64))
(declare-fun k!0 () Bool)
(declare-fun ARGNAME_x_NAMEEND_DIM () (_ BitVec 64))
(declare-fun temp2850_4 () (_ BitVec 64))
(declare-fun var131298 () (_ BitVec 64))
(declare-fun temp2850_5 () (_ BitVec 64))
(declare-fun temp2850_6 () (_ BitVec 64))
(declare-fun ARGNAME_x_NAMEEND_DIMSIZE () (Array (_ BitVec 64) (_ BitVec 64)))
(declare-fun temp2850_7 () (_ BitVec 64))
(declare-fun temp2850_8 () (_ BitVec 64))
(declare-fun temp2850_9 () (_ BitVec 64))
(declare-fun temp2850_10 () (_ BitVec 64))
(declare-fun temp2850_11 () (_ BitVec 64))
(declare-fun temp2850_12 () (_ BitVec 64))
(declare-fun temp2850_13 () (_ BitVec 64))
(declare-fun temp2850_14 () (_ BitVec 64))
(declare-fun temp2850_15 () (_ BitVec 64))
(declare-fun temp2850_16 () (_ BitVec 64))
(declare-fun temp2850_17 () (_ BitVec 64))
(declare-fun temp2850_18 () (_ BitVec 64))
(declare-fun temp2850_19 () (_ BitVec 64))
(declare-fun temp2850_20 () (_ BitVec 64))
(declare-fun temp2850_21 () (_ BitVec 64))
(declare-fun temp2850_22 () (_ BitVec 64))
(declare-fun temp2850_23 () (_ BitVec 64))
(declare-fun temp2850_24 () (_ BitVec 64))
(declare-fun temp2850_25 () (_ BitVec 64))
(declare-fun var131815 () (_ BitVec 64))
(declare-fun temp2850_27 () (_ BitVec 64))
(declare-fun temp2850_26 () (_ BitVec 64))
(declare-fun temp2850_28 () (_ BitVec 64))
(declare-fun var592370 () (_ BitVec 64))
(declare-fun var592372 () (_ BitVec 64))
(declare-fun var658108 () (_ BitVec 64))
(declare-fun temp2850_29 () (_ BitVec 64))
(declare-fun temp2850_30 () (_ BitVec 64))
(declare-fun temp2850_31 () (_ BitVec 64))
(declare-fun temp2850_32 () (_ BitVec 64))
(declare-fun var131845 () (_ BitVec 64))
(declare-fun temp2850_34 () (_ BitVec 64))
(declare-fun temp2850_33 () (_ BitVec 64))
(declare-fun temp2850_36 () (_ BitVec 64))
(declare-fun temp2850_35 () (_ BitVec 64))
(declare-fun temp2850_37 () (_ BitVec 64))
(declare-fun var1705254 () (_ BitVec 64))
(declare-fun temp2850_39 () (_ BitVec 64))
(declare-fun temp2850_38 () (_ BitVec 64))
(declare-fun temp2850_40 () (_ BitVec 64))
(declare-fun var2229542 () (_ BitVec 64))
(declare-fun temp2850_41 () (_ BitVec 64))
(declare-fun var2229576 () (_ BitVec 64))
(declare-fun temp2850_42 () (_ BitVec 64))
(assert (= temp2850_1 #x0000000000000000))
(assert (= var262370 temp2850_1))
(assert (= temp2850_2 #x0000000000000001))
(assert (= var131812
   (ite (= ARGNAME_x_NAMEEND_DIM temp2850_2)
        #x0000000000000001
        #x0000000000000000)))
(assert (= temp2850_3 #x0000000000000001))
(assert (= var131812 temp2850_3))
(assert (= temp2850_4 #x0000000000000000))
(assert (= var131298 temp2850_4))
(assert (= temp2850_5 #x0000000000000000))
(assert (= temp2850_6 temp2850_5))
(assert (= temp2850_7 (select ARGNAME_x_NAMEEND_DIMSIZE temp2850_6)))
(assert (= temp2850_8 #x0000000000000001))
(assert (= temp2850_9 temp2850_8))
(assert (= temp2850_10 (select ARGNAME_x_NAMEEND_DIMSIZE temp2850_9)))
(assert (= temp2850_11 #x0000000000000002))
(assert (= temp2850_12 temp2850_11))
(assert (= temp2850_13 (select ARGNAME_x_NAMEEND_DIMSIZE temp2850_12)))
(assert (= temp2850_14 #x0000000000000003))
(assert (= temp2850_15 temp2850_14))
(assert (= temp2850_16 (select ARGNAME_x_NAMEEND_DIMSIZE temp2850_15)))
(assert (= temp2850_17 #x0000000000000004))
(assert (= temp2850_18 temp2850_17))
(assert (= temp2850_19 (select ARGNAME_x_NAMEEND_DIMSIZE temp2850_18)))
(assert (= temp2850_20 #x0000000000000005))
(assert (= temp2850_21 temp2850_20))
(assert (= temp2850_22 (select ARGNAME_x_NAMEEND_DIMSIZE temp2850_21)))
(assert (= temp2850_23 #x0000000000000000))
(assert (= temp2850_24
   (ite (bvslt var131298 temp2850_23)
        (bvadd ARGNAME_x_NAMEEND_DIM var131298)
        var131298)))
(assert (= temp2850_25 (select ARGNAME_x_NAMEEND_DIMSIZE temp2850_24)))
(assert (= var131815 temp2850_25))
(assert (bvslt (ite (bvslt var131298 temp2850_23)
            (bvadd ARGNAME_x_NAMEEND_DIM var131298)
            var131298)
       ARGNAME_x_NAMEEND_DIM))
(assert (= temp2850_27 #x0000000000000001))
(assert (= temp2850_26 temp2850_27))
(assert (= temp2850_28 #x0000000000000005))
(assert (= var592370 temp2850_28))
(assert (= var592372 var592370))
(assert (= var658108 var592372))
(assert (= temp2850_29 #x0000000000000000))
(assert (= var131298 temp2850_29))
(assert (= temp2850_30 #x0000000000000000))
(assert (= temp2850_31
   (ite (bvslt var131298 temp2850_30)
        (bvadd ARGNAME_x_NAMEEND_DIM var131298)
        var131298)))
(assert (= temp2850_32 (select ARGNAME_x_NAMEEND_DIMSIZE temp2850_31)))
(assert (= var131845 temp2850_32))
(assert (bvslt (ite (bvslt var131298 temp2850_30)
            (bvadd ARGNAME_x_NAMEEND_DIM var131298)
            var131298)
       ARGNAME_x_NAMEEND_DIM))
(assert (= temp2850_34 #x0000000000000000))
(assert (= temp2850_33 temp2850_34))
(assert (= temp2850_36 #xffffffffffffffff))
(assert (= temp2850_35 temp2850_36))
(assert (= temp2850_37 #x0000000000000001))
(assert (= var1705254 temp2850_37))
(assert (= temp2850_39 #x0000000000000001))
(assert (= temp2850_38 temp2850_39))
(assert (= temp2850_40 #x0000000000000001))
(assert (= var2229542 temp2850_40))
(assert (= temp2850_41 #x0000000000000000))
(assert (= var2229576 temp2850_41))
(assert (= temp2850_42 #x0000000000000000))
(assert (= var2229576 temp2850_42))
(model-add temp2850_1 () (_ BitVec 64) #x0000000000000000)
(model-add var262370 () (_ BitVec 64) #x0000000000000000)
(model-add temp2850_2 () (_ BitVec 64) #x0000000000000001)
(model-add temp2850_3 () (_ BitVec 64) #x0000000000000001)
(model-add var131812 () (_ BitVec 64) #x0000000000000001)
(model-del k!0)
(model-add ARGNAME_x_NAMEEND_DIM
           ()
           (_ BitVec 64)
           (ite k!0 #x0000000000000001 (bvnot #x0000000000000001)))






